32,72
169,16
29,64
20,17
122,99
60,99
5,7
169,96
133,79
198,47
103,87
11,76
90,98
91,90
119,45
130,50
152,86
29,80
36,10
32,70
147,65
50,21
177,92
75,16
147,44
192,2
77,60
146,12
82,42
42,65
60,8
150,37
49,1
118,30
114,91
136,15
32,69
5,76
96,17
186,93
61,37
144,12
170,7
62,96
68,99
110,27
153,3
197,11
15,38
141,82
